1294641
57,21,103,90,88,10,48,9,65,76,8,36,25,40,37,71,56,74,85,26,68,69,13,38,30,96,46,70,98,104,92,95,86,61,18,72,75,49,6,87,17,64,59,41,107,32,77,105,54,11,35,27,7,39,67,12,20,47,73,55,91,102,29,42,84,60,5,94,31,43,3,66,78,62,19,2,82,24,15,106,93,45,80,1,50,83,58,28,51,33,100,97,34,4,0,81,44,89,108,23,63,22,14,79,16,52,99,101,53
